c status 11 1469274441172
c status 9 1469274441172
s td 37 9 45
b 1 1 31 32
b 2 45 34 36
b 3 44 33 36
b 4 43 32 36
b 5 42 31 36
b 6 41 33 34
b 7 2 31 33
b 8 6 37 34
b 9 22 31 40
b 10 23 32 40
b 11 24 31 34
b 12 35 32 34
b 13 25 33 40
b 14 7 37 36
b 15 26 34 40
b 16 27 36 40
b 17 30 39 40
b 18 28 37 40
b 19 29 38 40
b 20 8 31 38
b 21 9 32 38
b 22 3 37 31
b 23 10 33 38
b 24 11 34 38
b 25 12 36 38
b 26 21 38 39
b 27 20 37 39
b 28 19 36 39
b 29 18 34 39
b 30 17 33 39
b 31 16 32 39
b 32 15 31 39
b 33 14 37 38
b 34 13 32 33
b 35 4 37 32
b 36 5 37 33
b 37 37 31 32 33 34 36 38 39 40
1 37
37 8
37 35
37 9
37 10
37 11
37 12
37 13
37 14
37 15
37 16
37 17
37 18
37 19
37 20
37 21
37 22
37 23
37 24
37 25
37 26
37 27
37 28
37 29
37 30
37 31
37 32
37 33
37 34
37 36
37 2
37 3
37 4
37 5
37 6
37 7
